SCIP Status        : solving was interrupted [time limit reached]
Total Time         :    3600.01
  solving          :    3600.00
  presolving       :       0.29 (included in solving)
  reading          :       0.01
  copying          :       1.09 (66 #copies) (minimal 0.00, maximal 0.05, average 0.02)
Original Problem   :
  Problem name     : bbbenchmark/g05_100.9.cut
  Variables        : 101 (100 binary, 0 integer, 0 implicit integer, 1 continuous)
  Constraints      : 1 initial, 1 maximal
  Objective        : minimize, 1 non-zeros (abs.min = 1, abs.max = 1)
Presolved Problem  :
  Problem name     : t_bbbenchmark/g05_100.9.cut
  Variables        : 1801 (100 binary, 0 integer, 1685 implicit integer, 16 continuous)
  Constraints      : 1731 initial, 4658 maximal
  Objective        : minimize, 1 non-zeros (abs.min = 1, abs.max = 1)
  Nonzeros         : 8511 constraint, 202 clique table
Presolvers         :   ExecTime  SetupTime  Calls  FixedVars   AggrVars   ChgTypes  ChgBounds   AddHoles    DelCons    AddCons   ChgSides   ChgCoefs
  boundshift       :       0.00       0.00      0          0          0          0          0          0          0          0          0          0
  convertinttobin  :       0.00       0.00      0          0          0          0          0          0          0          0          0          0
  domcol           :       0.00       0.00      1          0          0          0          0          0          0          0          0          0
  dualagg          :       0.00       0.00      0          0          0          0          0          0          0          0          0          0
  dualcomp         :       0.00       0.00      1          0          0          0          0          0          0          0          0          0
  dualinfer        :       0.00       0.00      0          0          0          0          0          0          0          0          0          0
  dualsparsify     :       0.00       0.00      1          0          0          0          0          0          0          0          0          0
  gateextraction   :       0.00       0.00      0          0          0          0          0          0          0          0          0          0
  implics          :       0.00       0.00      2          0          0          0          0          0          0          0          0          0
  inttobinary      :       0.00       0.00      0          0          0          0          0          0          0          0          0          0
  qpkktref         :       0.00       0.00      0          0          0          0          0          0          0          0          0          0
  redvub           :       0.00       0.00      0          0          0          0          0          0          0          0          0          0
  sparsify         :       0.00       0.00      1          0          0          0          0          0          0          0          0          0
  stuffing         :       0.00       0.00      0          0          0          0          0          0          0          0          0          0
  trivial          :       0.00       0.00      4          0          0          0          0          0          0          0          0          0
  tworowbnd        :       0.00       0.00      0          0          0          0          0          0          0          0          0          0
  dualfix          :       0.00       0.00      4          0          0          0          0          0          0          0          0          0
  genvbounds       :       0.00       0.00      0          0          0          0          0          0          0          0          0          0
  probing          :       0.16       0.00      1          0          0          0          0          0          0          0          0          0
  pseudoobj        :       0.00       0.00      1          0          0          0          1          0          0          0          0          0
  symmetry         :       0.00       0.00      0          0          0          0          0          0          0          0          0          0
  vbounds          :       0.00       0.00      1          0          0          0          0          0          0          0          0          0
  varbound         :       0.00       0.00      2          0          0          0          0          0          0          0          0          0
  and              :       0.00       0.00      2          0          0          0          0          0          0          0          0          0
  linear           :       0.00       0.00      2          0          0          0          0          0          0          0          0          0
  logicor          :       0.00       0.00      0          0          0          0          0          0          0          0          0          0
  bounddisjunction :       0.00       0.00      0          0          0          0          0          0          0          0          0          0
  nonlinear        :       0.12       0.01      5          0          0          0          1          0          0       1730          0          0
  benders          :       0.00       0.00      0          0          0          0          0          0          0          0          0          0
  components       :       0.01       0.00      1          0          0          0          0          0          0          0          0          0
  root node        :          -          -      -          0          -          -         15          -          -          -          -          -
Constraints        :     Number  MaxNumber  #Separate #Propagate    #EnfoLP    #EnfoRelax  #EnfoPS    #Check   #ResProp    Cutoffs    DomReds       Cuts    Applied      Conss   Children
  benderslp        :          0          0          0          0     167148          0          0      24625          0          0          0          0          0          0          0
  integral         :          0          0          0          0     167148          0          0      24625          0          0        384          0          0        255     333822
  varbound         :         15         15        234     838904          0          0          0       8845          0          0     136412          0          0          0          0
  and              :       1685       1685     181997     890105          2          0          0       8845     304694          1     308224        255        218          0          0
  linear           :         31+        42        234     890195          2          0          0       8843       2804         52     692450          0          0          0          0
  logicor          :          0+      2648          0     129050          0          0          0          0         54        280         19          0          0          0          0
  bounddisjunction :          0+       451          0     103865          0          0          0          0          4         42          8          0          0          0          0
  benders          :          0          0          0          0          2          0          0         27          0          0          0          0          0          0          0
  countsols        :          0          0          0          0          2          0          0         27          0          0          0          0          0          0          0
  components       :          0          0          0          0          0          0          0          0          0          0          0          0          0          0          0
Constraint Timings :  TotalTime  SetupTime   Separate  Propagate     EnfoLP     EnfoPS     EnfoRelax   Check    ResProp    SB-Prop
  benderslp        :       0.26       0.00       0.00       0.00       0.25       0.00       0.00       0.01       0.00       0.00
  integral         :      63.49       0.00       0.00       0.00      62.73       0.00       0.00       0.76       0.00       0.00
  varbound         :       1.88       0.00       0.01       1.78       0.00       0.00       0.00       0.08       0.00       0.01
  and              :     124.04       0.00      90.35      31.35       0.00       0.00       0.00       2.00       0.19       0.15
  linear           :       6.78       0.00       0.07       6.53       0.00       0.00       0.00       0.16       0.00       0.02
  logicor          :       6.88       0.00       0.00       6.87       0.00       0.00       0.00       0.00       0.00       0.01
  bounddisjunction :       2.50       0.00       0.00       2.50       0.00       0.00       0.00       0.00       0.00       0.00
  benders          :       0.00       0.00       0.00       0.00       0.00       0.00       0.00       0.00       0.00       0.00
  countsols        :       0.00       0.00       0.00       0.00       0.00       0.00       0.00       0.00       0.00       0.00
  components       :       0.30       0.00       0.00       0.30       0.00       0.00       0.00       0.00       0.00       0.00
Propagators        : #Propagate   #ResProp    Cutoffs    DomReds
  dualfix          :          4          0          0          0
  genvbounds       :          0          0          0          0
  nlobbt           :          0          0          0          0
  obbt             :          0          0          0          0
  probing          :          0          0          0          0
  pseudoobj        :     737753          0          0         15
  redcost          :     359911          0          0      88734
  rootredcost      :         12          0          0          0
  symmetry         :          0          0          0          0
  vbounds          :     188846          0          0          0
Propagator Timings :  TotalTime  SetupTime   Presolve  Propagate    ResProp    SB-Prop
  dualfix          :       0.00       0.00       0.00       0.00       0.00       0.00
  genvbounds       :       0.75       0.00       0.00       0.75       0.00       0.00
  nlobbt           :       0.00       0.00       0.00       0.00       0.00       0.00
  obbt             :       0.00       0.00       0.00       0.00       0.00       0.00
  probing          :       0.16       0.00       0.16       0.00       0.00       0.00
  pseudoobj        :       1.28       0.00       0.00       1.28       0.00       0.00
  redcost          :      20.43       0.00       0.00      20.42       0.00       0.01
  rootredcost      :       0.80       0.00       0.00       0.79       0.00       0.01
  symmetry         :       0.54       0.00       0.00       0.54       0.00       0.00
  vbounds          :       0.79       0.00       0.00       0.79       0.00       0.00
Conflict Analysis  :       Time      Calls    Success    DomReds  Conflicts   Literals    Reconvs ReconvLits   Dualrays   Nonzeros   LP Iters   (pool size: [10000,10000])
  propagation      :       0.02        329        254          -        490       87.8          0        0.0          -          -          -
  infeasible LP    :       0.37        174        174          -       7632      150.5          0        0.0        386      173.4          0
  bound exceed. LP :      14.00       3465       3239          -      79142      117.3          1       75.0          0        0.0      37308
  strong branching :       0.00          0          0          -          0        0.0          0        0.0          -          -          0
  pseudo solution  :       0.00          0          0          -          0        0.0          0        0.0          -          -          -
  applied globally :       0.43          -          -          0      19117      125.2          -          -        386          -          -
  applied locally  :          -          -          -          0          0        0.0          -          -          0          -          -
Separators         :   ExecTime  SetupTime      Calls  RootCalls    Cutoffs    DomReds  FoundCuts ViaPoolAdd  DirectAdd    Applied ViaPoolApp  DirectApp      Conss
  cut pool         :       4.20          -      35009        261          -          -      35325     694015          -          -          -          -          -    (maximal pool size:       1919)
  aggregation      :     366.62       0.00       4188        234          0          0          4          8          0          5          5          0          0
  > cmir           :          -          -          -          -          -          -          -          8          0          5          5          0          -
  > flowcover      :          -          -          -          -          -          -          -          0          0          0          0          0          -
  > knapsackcover  :          -          -          -          -          -          -          -          0          0          0          0          0          -
  cgmip            :       0.00       0.00          0          0          0          0          0          0          0          0          0          0          0
  clique           :       0.01       0.00        234        234          0          0          0          0          0          0          0          0          0
  closecuts        :       0.00       0.00          0          0          0          0          0          0          0          0          0          0          0
  convexproj       :       0.00       0.00          0          0          0          0          0          0          0          0          0          0          0
  disjunctive      :       0.00       0.00          0          0          0          0          0          0          0          0          0          0          0
  eccuts           :       0.00       0.00          0          0          0          0          0          0          0          0          0          0          0
  gauge            :       0.00       0.00          0          0          0          0          0          0          0          0          0          0          0
  gomory           :       0.00       0.00          0          0          0          0          0          0          0          0          0          0          0
  > gomorymi       :          -          -          -          -          -          -          -          0          0          0          0          0          -
  > strongcg       :          -          -          -          -          -          -          -          0          0          0          0          0          -
  impliedbounds    :       0.41       0.00       4188        234          0          0          0          0          0          0          0          0          0
  interlattice     :       0.73       0.00        160        160          0          0        160          0        160        153          0        153          0
  interminor       :       0.00       0.00          0          0          0          0          0          0          0          0          0          0          0
  intersub         :       1.29       0.00         40         40          0          0         40          0         40         39          0         39          0
  intobj           :       0.00       0.00          0          0          0          0          0          0          0          0          0          0          0
  mcf              :       0.00       0.00          1          1          0          0          0          0          0          0          0          0          0
  minor            :       0.01       0.00          0          0          0          0          0          0          0          0          0          0          0
  mixing           :       0.01       0.00       4188        234          0          0          0          0          0          0          0          0          0
  oddcycle         :       0.00       0.00          0          0          0          0          0          0          0          0          0          0          0
  rapidlearning    :       0.01       0.00          0          0          0          0          0          0          0          0          0          0          0
  rlt              :       0.00       0.00         10         10          0          0          0          0          0          0          0          0          0
  zerohalf         :      33.63       0.00       3680         20          0          0      35321     694007          0     139962     139962          0          0
Cutselectors       :   ExecTime  SetupTime      Calls  RootCalls   Selected     Forced   Filtered  RootSelec   RootForc   RootFilt 
  hybrid           :       0.69       0.00      10095        232     140377          0     554093        390          0         29
Pricers            :   ExecTime  SetupTime      Calls       Vars
  problem variables:       0.00          -          0          0
Branching Rules    :   ExecTime  SetupTime   BranchLP  BranchExt   BranchPS    Cutoffs    DomReds       Cuts      Conss   Children
  allfullstrong    :       0.00       0.00          0          0          0          0          0          0          0          0
  cloud            :       0.00       0.00          0          0          0          0          0          0          0          0
  distribution     :       0.00       0.00          0          0          0          0          0          0          0          0
  fullstrong       :       0.00       0.00          0          0          0          0          0          0          0          0
  inference        :       0.00       0.00          0          0          0          0          0          0          0          0
  leastinf         :       0.00       0.00          0          0          0          0          0          0          0          0
  lookahead        :       0.00       0.00          0          0          0          0          0          0          0          0
  mostinf          :       0.00       0.00          0          0          0          0          0          0          0          0
  multaggr         :       0.00       0.00          0          0          0          0          0          0          0          0
  nodereopt        :       0.00       0.00          0          0          0          0          0          0          0          0
  pscost           :       0.00       0.00          0          0          0          0          0          0          0          0
  random           :       0.00       0.00          0          0          0          0          0          0          0          0
  relpscost        :      62.36       0.00     167146          0          0          0        384          0        255     333822
  vanillafullstrong:       0.00       0.00          0          0          0          0          0          0          0          0
Primal Heuristics  :   ExecTime  SetupTime      Calls      Found       Best
  LP solutions     :       0.03          -          -          2          2
  relax solutions  :       0.00          -          -          0          0
  pseudo solutions :       0.00          -          -          0          0
  strong branching :       0.01          -          -          0          0
  actconsdiving    :       0.00       0.00          0          0          0
  adaptivediving   :      12.72       0.00         84          1          1
  alns             :       3.40       0.00         35          7          6
  bound            :       0.00       0.00          0          0          0
  clique           :       0.01       0.00          1          0          0
  coefdiving       :       0.00       0.00          0          0          0
  completesol      :       0.00       0.00          0          0          0
  conflictdiving   :     128.14       0.00        800          0          0
  crossover        :       2.86       0.00          5          1          1
  dins             :       0.00       0.00          0          0          0
  distributiondivin:      61.31       0.00        231          0          0
  dps              :       0.00       0.00          0          0          0
  dualval          :       0.00       0.00          0          0          0
  farkasdiving     :       0.02       0.00          0          0          0
  feaspump         :       0.83       0.00          1          1          1
  fixandinfer      :       0.00       0.00          0          0          0
  fracdiving       :      48.60       0.00        322          1          1
  gins             :       0.33       0.00          0          0          0
  guideddiving     :      45.17       0.00        297          0          0
  indicator        :       0.20       0.00          0          0          0
  indicatordiving  :       0.00       0.00          0          0          0
  intdiving        :       0.00       0.00          0          0          0
  intshifting      :       0.35       0.00         38          0          0
  linesearchdiving :      42.19       0.00        303          0          0
  localbranching   :       0.00       0.00          0          0          0
  locks            :       0.00       0.00          1          0          0
  lpface           :       0.21       0.00          0          0          0
  mpec             :     107.46       0.00         11          0          0
  multistart       :       0.00       0.00          0          0          0
  mutation         :       0.00       0.00          0          0          0
  nlpdiving        :      14.19       0.00          1          0          0
  objpscostdiving  :      78.68       0.00         75          6          3
  octane           :       0.00       0.00          0          0          0
  ofins            :       0.19       0.00          0          0          0
  oneopt           :       0.20       0.00         16          0          0
  padm             :       0.00       0.00          0          0          0
  proximity        :       0.00       0.00          0          0          0
  pscostdiving     :      43.88       0.00        243          1          1
  randrounding     :       4.52       0.00      24594          0          0
  rens             :       0.00       0.00          0          0          0
  reoptsols        :       0.00       0.00          0          0          0
  repair           :       0.00       0.00          0          0          0
  rins             :       6.30       0.00         25          0          0
  rootsoldiving    :      19.28       0.00         28          0          0
  rounding         :       1.95       0.00       5738          0          0
  shiftandpropagate:       0.00       0.00          0          0          0
  shifting         :      45.90       0.00      11989          3          3
  simplerounding   :       0.18       0.00          0          0          0
  subnlp           :     267.16       0.00          0          0          0
  trivial          :       0.00       0.00          2          2          2
  trivialnegation  :       0.00       0.00          0          0          0
  trustregion      :       0.00       0.00          0          0          0
  trysol           :       0.38       0.00          0          0          0
  twoopt           :       0.00       0.00          0          0          0
  undercover       :       1.54       0.00          1          1          1
  vbounds          :       0.00       0.00          0          0          0
  veclendiving     :      42.34       0.00        318          0          0
  zeroobj          :       0.00       0.00          0          0          0
  zirounding       :       0.64       0.00       1000          0          0
  other solutions  :          -          -          -          0          -
Diving (single)    :      Calls      Nodes   LP Iters Backtracks  Conflicts   MinDepth   MaxDepth   AvgDepth  RoundSols  NLeafSols  MinSolDpt  MaxSolDpt  AvgSolDpt
  actconsdiving    :          0          -          -          -          -          -          -          -          -          -          -          -          -
  coefdiving       :          0          -          -          -          -          -          -          -          -          -          -          -          -
  conflictdiving   :        800      37746    1030305        670      42095         55         89       68.3          0          -          -          -          -
  distributiondivin:        231       9972     355694        254       4728         56         74       63.1          0          -          -          -          -
  farkasdiving     :          0          -          -          -          -          -          -          -          -          -          -          -          -
  fracdiving       :        322      41768     361175         65        578         61        421      151.8          0          1        114        114      114.0
  guideddiving     :        297      33933     351239         24        430         62        277      135.0          0          -          -          -          -
  indicatordiving  :          0          -          -          -          -          -          -          -          -          -          -          -          -
  linesearchdiving :        303      14160     351677         99      12096         48         93       68.8          0          -          -          -          -
  pscostdiving     :        243      11326     368748        255       4337         56         77       66.6          0          1         67         67       67.0
  veclendiving     :        318      14903     351348        190      18297         54         93       70.1          0          -          -          -          -
Diving (adaptive)  :      Calls      Nodes   LP Iters Backtracks  Conflicts   MinDepth   MaxDepth   AvgDepth  RoundSols  NLeafSols  MinSolDpt  MaxSolDpt  AvgSolDpt
  actconsdiving    :          6        259       7517          8        116         59         66       62.2          0          -          -          -          -
  coefdiving       :         34       1630      37884          9       1645         54         79       68.2          0          -          -          -          -
  conflictdiving   :          0          -          -          -          -          -          -          -          -          -          -          -          -
  distributiondivin:          0          -          -          -          -          -          -          -          -          -          -          -          -
  farkasdiving     :          0          -          -          -          -          -          -          -          -          -          -          -          -
  fracdiving       :          1         18         74          1         13         77         77       77.0          0          -          -          -          -
  guideddiving     :          1         91       1153          0          0        113        113      113.0          0          1        113        113      113.0
  indicatordiving  :          0          -          -          -          -          -          -          -          -          -          -          -          -
  linesearchdiving :         25       1197      31291          6       1016         52         85       69.0          0          -          -          -          -
  pscostdiving     :          2        102       3135          2         39         69         70       69.5          0          -          -          -          -
  veclendiving     :         15        845      16784          7       1033         69         79       73.5          0          -          -          -          -
Neighborhoods      :      Calls  SetupTime  SolveTime SolveNodes       Sols       Best       Exp3  EpsGreedy        UCB TgtFixRate  Opt  Inf Node Stal  Sol  Usr Othr Actv
  rens             :          2       0.04       0.09         70          0          0    0.00000   -1.00000    0.47854      0.850    0    1    0    1    0    0    0    1
  rins             :          3       0.11       0.43        668          2          2    0.00000   -1.00000    0.45018      0.587    0    2    0    1    0    0    0    1
  mutation         :          2       0.04       0.10         75          0          0    0.00000   -1.00000    0.48059      0.850    0    1    0    1    0    0    0    1
  localbranching   :         10       0.29       0.33        601          3          3    0.00000   -1.00000    0.50031      0.845    1    4    0    5    0    0    0    1
  crossover        :          4       0.11       0.31         94          0          0    0.00000   -1.00000    0.46418      0.522    0    3    0    1    0    0    0    1
  proximity        :         10       0.27       0.55        676          2          1    0.00000   -1.00000    0.49994      0.859    1    4    0    5    0    0    0    1
  zeroobjective    :          2       0.03       0.07         91          0          0    0.00000   -1.00000    0.47404      0.850    0    1    0    1    0    0    0    1
  dins             :          2       0.05       0.10         86          0          0    0.00000   -1.00000    0.47408      0.850    0    1    0    1    0    0    0    1
  trustregion      :          0       0.00       0.00          0          0          0    0.00000   -1.00000    1.00000      0.900    0    0    0    0    0    0    0    0
Expressions        :   #IntEval  IntEvalTi   #RevProp  RevPropTi    DomReds    Cutoffs  #Estimate  EstimTime  Branching  #Simplify SimplifyTi Simplified
  pow              :          0       0.00          0       0.00          0          0          0       0.00          0          0       0.00          0
  prod             :       9900       0.00          0       0.00          0          0          0       0.00          0       6635       0.00          0
  sum              :          8       0.00          2       0.00          0          0          0       0.00          0          3       0.00          2
  var              :       6212       0.01          0       0.00          0          0          0       0.00          0      15273       0.00          0
  varidx           :          0       0.00          0       0.00          0          0          0       0.00          0          0       0.00          0
LP                 :       Time      Calls Iterations  Iter/call   Iter/sec  Time-0-It Calls-0-It    ItLimit
  primal LP        :     157.48      22349          0       0.00       0.00     157.41      22349
  dual LP          :    1525.62     297610    6776605      24.03    4441.87       7.88      15553
  lex dual LP      :       0.00          0          0       0.00          -
  barrier LP       :       0.00          0          0       0.00          -       0.00          0
  resolve instable :       0.00          0          0       0.00          -
  diving/probing LP:     448.29      15257    3759479     246.41    8386.27
  strong branching :      17.44        804      97688     121.50    5601.38          -          -         21
    (at root node) :          -         20       9901     495.05          -
  conflict analysis:       6.62       3930      37308       9.49    5635.65
NLP relaxation     :
  solve time       :      13.70 (8 calls)
  convexity        :  nonconvex (46 linear rows, 0 convex ineq., 0 nonconvex ineq., 1685 nonlinear eq. or two-sided ineq.)
NLP Solvers        :  #Problems  ProblemTi    #Solves  SolveTime      #Iter  Time/Iter      #Okay #TimeLimit #IterLimit #LObjLimit #Interrupt  #NumError #EvalError  #OutOfMem #LicenseEr #OtherTerm   #GlobOpt    #LocOpt  #Feasible #LocInfeas #GlobInfea #Unbounded   #Unknown
  ipopt            :         12      11.33         39     123.33       1934       0.06         37          0          2          0          0          0          0          0          0          0          0         25          1         11          0          0          2
B&B Tree           :
  number of runs   :          1
  nodes            :     271749 (166911 internal, 104838 leaves)
  feasible leaves  :          2
  infeas. leaves   :          1
  objective leaves :     104834
  nodes (total)    :     271749 (166911 internal, 104838 leaves)
  nodes left       :      61473
  max depth        :         68
  max depth (total):         68
  backtracks       :      65976 (24.3%)
  early backtracks :          0 (0.0%)
  nodes exc. ref.  :          0 (0.0%)
  delayed cutoffs  :          7
  repropagations   :         34 (37 domain reductions, 0 cutoffs)
  avg switch length:       8.42
  switching time   :     235.20
Estim. Tree Size   :     544700
Estimation Tree    : 333823 nodes (272350 visited, 166911 internal, 105439 leaves, 61473 open), weight: 0.0000 completed 0.0509
Estimations        :      estim      value      trend resolution     smooth
  wbe              : 985520370001090048          -          -          -          -
  tree-profile     :         -1          -          -          -          -
  gap              :   11844216    0.68275    0.00001        128   11509330
  tree-weight      :     544700    0.00000    0.00000        128     543990
  leaf-frequency   :    2136941    0.38714    0.00001        128    2161401
  ssg              :   21426547    0.91963   -0.00001        128   21592465
  open-nodes       :     544700 61473.00000   32.53054        128     543990
Root Node          :
  First LP value   : -1.00000000000000e+00
  First LP Iters   :       1688 (16880.00 Iter/sec)
  First LP Time    :       0.10
  Final Dual Bound : -9.35825385357123e-01
  Final Root Iters :       9225
  Root LP Estimate : -3.53786363071130e-01
Solution           :
  Solutions found  :         26 (22 improvements)
  First Solution   : +1.00000000000000e+05   (in run 1, after 0 nodes, 0.03 seconds, depth 0, found by <trivial>)
  Gap First Sol.   :   infinite
  Gap Last Sol.    :      47.46 %
  Primal Bound     : -5.61212121212119e-01   (in run 1, after 194397 nodes, 2670.07 seconds, depth 20, found by <alns>)
  Dual Bound       : -8.21991213524598e-01
  Gap              :      46.47 %
Integrals          :      Total       Avg%
  primal-dual      :  124196.32      34.50
  primal-ref       :          -          - (not evaluated)
  dual-ref         :          -          - (not evaluated)
